 &control
    calculation = 'scf'
    restart_mode='from_scratch',
    prefix='BN',
    pseudo_dir = './',
    outdir='./'
 /
 &system
    ibrav=  4, celldm(1) =4.7419, celldm(3) =4.3, nat= 2, ntyp= 2,
    ecutwfc =60,
    ecutrho =480,
    occupations = 'smearing',
    smearing = 'mp',
    degauss = 0.02    
 /
 &electrons
    conv_thr =  1.0d-8
 /
ATOMIC_SPECIES
B 10.81     B.pbe-n-kjpaw_psl.1.0.0.UPF
N 14.00674  N.pbe-n-kjpaw_psl.1.0.0.UPF
ATOMIC_POSITIONS (alat)
B        0.000000000   0.288675135   0.000000000
N        0.000000000  -0.288675135   0.000000000 
K_POINTS {automatic}
32 32 1  0 0 0
