&control
   calculation = 'scf'
   prefix='Si',
   pseudo_dir = './',
   outdir='./'
 /
 &system
   ibrav= 2, 
   celldm(1)= 10.20, 
   nat=2, 
   ntyp=1,
   ecutwfc=24.0,
 /
 &electrons
    conv_thr =  1.0d-8
 /
ATOMIC_SPECIES
 Si  28.086  Si.pz-n-kjpaw_psl.1.0.0.UPF
ATOMIC_POSITIONS (alat)
 Si 0.00 0.00 0.00
 Si 0.25 0.25 0.25
K_POINTS AUTOMATIC
2 2 2 1 1 1 
