ph_title
 &inputph
  tr2_ph=1.0d-12,
  prefix='Si',
  fildyn='Si.dyn.xml',
  ldisp=.TRUE.
  nq1=4, nq2=4, nq3=4,
/
